Set parameter TokenServer to value "hpc-licenses.hpcc.usc.edu"
Set parameter TimeLimit to value 3600
Gurobi Optimizer version 9.5.1 build v9.5.1rc2 (linux64)
Thread count: 20 physical cores, 20 logical processors, using up to 20 threads
Optimize a model with 6007 rows, 4529 columns and 24534 nonzeros
Model fingerprint: 0x7662d29b
Variable types: 4506 continuous, 23 integer (23 binary)
Coefficient statistics:
  Matrix range     [1e+00, 1e+00]
  Objective range  [6e-03, 1e+00]
  Bounds range     [1e+00, 1e+00]
  RHS range        [1e+00, 8e+01]
Presolve removed 1520 rows and 1515 columns
Presolve time: 0.09s
Presolved: 4487 rows, 3014 columns, 21975 nonzeros
Variable types: 2994 continuous, 20 integer (20 binary)
Found heuristic solution: objective 279.4987344

Root relaxation: objective 2.861554e+02, 2946 iterations, 0.13 seconds (0.13 work units)

    Nodes    |    Current Node    |     Objective Bounds      |     Work
 Expl Unexpl |  Obj  Depth IntInf | Incumbent    BestBd   Gap | It/Node Time

     0     0  286.15535    0    5  279.49873  286.15535  2.38%     -    0s
     0     0  286.04009    0    5  279.49873  286.04009  2.34%     -    0s
     0     0  285.97262    0    5  279.49873  285.97262  2.32%     -    0s
     0     0  285.97140    0    5  279.49873  285.97140  2.32%     -    0s
H    0     0                     280.2091303  285.97140  2.06%     -    0s
     0     0  285.94700    0    5  280.20913  285.94700  2.05%     -    0s
H    0     0                     284.7341690  285.94700  0.43%     -    0s
H    0     0                     285.5114061  285.84714  0.12%     -    0s

Cutting planes:
  Gomory: 4
  MIR: 92
  Flow cover: 1
  RLT: 22

Explored 1 nodes (3997 simplex iterations) in 0.93 seconds (0.61 work units)
Thread count was 20 (of 20 available processors)

Solution count 4: 285.511 284.734 280.209 279.499 

Optimal solution found (tolerance 1.00e-04)
Best objective 2.855114060841e+02, best bound 2.855114060841e+02, gap 0.0000%



#########node  1
V1.8
#########node  2
0.24242424242424243,0.7575757575757576
#########node  3
1.0,0.0


Total Solving Time 1.3455331325531006
obj value 285.51140608410907
Policy Regret train (Sum) 3.4466623243982886
Best Treatment Found train (%) 75.4
treatment classification acc train (%) 47.199999999999996
Policy Regret test (Sum) 33.68478658989411
Best Treatment Found test (%) 82.75
treatment classification acc test (%) 50.31
